<?xml version="1.0" encoding="UTF-8"?><osil xmlns="os.optimizationservices.org"   xmlns:xsi="http://www.w3.org/2001/XMLSchema-instance" xsi:schemaLocation="os.optimizationservices.org http://www.optimizationservices.org/schemas/2.0/OSiL.xsd" ><instanceHeader><name>q_20_0_75_3</name></instanceHeader><instanceData><variables numberOfVariables="20"><var name="x1" ub="1"/><var name="x2" ub="1"/><var name="x3" ub="1"/><var name="x4" ub="1"/><var name="x5" ub="1"/><var name="x6" ub="1"/><var name="x7" ub="1"/><var name="x8" ub="1"/><var name="x9" ub="1"/><var name="x10" ub="1"/><var name="x11" ub="1"/><var name="x12" ub="1"/><var name="x13" ub="1"/><var name="x14" ub="1"/><var name="x15" ub="1"/><var name="x16" ub="1"/><var name="x17" ub="1"/><var name="x18" ub="1"/><var name="x19" ub="1"/><var name="x20" ub="1"/></variables><objectives numberOfObjectives="1"><obj maxOrMin="min" name="defObj_x21" numberOfObjCoef="20"><coef idx="0">-.4775</coef><coef idx="1">-1.12e-2</coef><coef idx="2">.4793</coef><coef idx="3">.2361</coef><coef idx="4">.3537</coef><coef idx="5">.4693</coef><coef idx="6">.7316</coef><coef idx="7">.3182</coef><coef idx="8">.8041</coef><coef idx="9">-.4561</coef><coef idx="10">.8676</coef><coef idx="11">-.7196</coef><coef idx="12">-.3273</coef><coef idx="13">-5.17e-2</coef><coef idx="14">-.9975</coef><coef idx="15">-.5365</coef><coef idx="16">.9168</coef><coef idx="17">.7715</coef><coef idx="18">.1129</coef><coef idx="19">-.3254</coef></obj></objectives><quadraticCoefficients  numberOfQuadraticTerms="110" ><qTerm  idx="-1"  idxOne="0"  idxTwo="0"  coef="-3.39e-2"/><qTerm  idx="-1"  idxOne="0"  idxTwo="1"  coef=".2248"/><qTerm  idx="-1"  idxOne="0"  idxTwo="2"  coef=".366"/><qTerm  idx="-1"  idxOne="0"  idxTwo="3"  coef="-.1987"/><qTerm  idx="-1"  idxOne="0"  idxTwo="5"  coef="-.5784"/><qTerm  idx="-1"  idxOne="0"  idxTwo="7"  coef=".8198"/><qTerm  idx="-1"  idxOne="0"  idxTwo="8"  coef="-4.86e-2"/><qTerm  idx="-1"  idxOne="0"  idxTwo="10"  coef=".7126"/><qTerm  idx="-1"  idxOne="0"  idxTwo="14"  coef=".8337"/><qTerm  idx="-1"  idxOne="0"  idxTwo="15"  coef="3.08e-2"/><qTerm  idx="-1"  idxOne="0"  idxTwo="17"  coef=".4378"/><qTerm  idx="-1"  idxOne="0"  idxTwo="18"  coef="-.4249"/><qTerm  idx="-1"  idxOne="0"  idxTwo="19"  coef="-.876"/><qTerm  idx="-1"  idxOne="1"  idxTwo="6"  coef="-.247"/><qTerm  idx="-1"  idxOne="1"  idxTwo="7"  coef="-.482"/><qTerm  idx="-1"  idxOne="1"  idxTwo="10"  coef="8.08e-2"/><qTerm  idx="-1"  idxOne="1"  idxTwo="11"  coef="6.87e-2"/><qTerm  idx="-1"  idxOne="1"  idxTwo="12"  coef="-.9379"/><qTerm  idx="-1"  idxOne="1"  idxTwo="14"  coef="-.1556"/><qTerm  idx="-1"  idxOne="1"  idxTwo="15"  coef="-.1534"/><qTerm  idx="-1"  idxOne="1"  idxTwo="16"  coef=".2972"/><qTerm  idx="-1"  idxOne="1"  idxTwo="17"  coef="-.682"/><qTerm  idx="-1"  idxOne="1"  idxTwo="18"  coef="-.2246"/><qTerm  idx="-1"  idxOne="2"  idxTwo="2"  coef=".2078"/><qTerm  idx="-1"  idxOne="2"  idxTwo="6"  coef="8.01e-2"/><qTerm  idx="-1"  idxOne="2"  idxTwo="7"  coef=".412"/><qTerm  idx="-1"  idxOne="2"  idxTwo="9"  coef="-.7653"/><qTerm  idx="-1"  idxOne="2"  idxTwo="13"  coef=".7097"/><qTerm  idx="-1"  idxOne="2"  idxTwo="17"  coef=".1609"/><qTerm  idx="-1"  idxOne="2"  idxTwo="18"  coef="4.63e-2"/><qTerm  idx="-1"  idxOne="3"  idxTwo="6"  coef="-4.9e-2"/><qTerm  idx="-1"  idxOne="3"  idxTwo="9"  coef="-.9321"/><qTerm  idx="-1"  idxOne="3"  idxTwo="12"  coef=".5337"/><qTerm  idx="-1"  idxOne="3"  idxTwo="13"  coef=".6369"/><qTerm  idx="-1"  idxOne="3"  idxTwo="15"  coef="-.8873"/><qTerm  idx="-1"  idxOne="3"  idxTwo="16"  coef="-.5746"/><qTerm  idx="-1"  idxOne="3"  idxTwo="17"  coef=".4865"/><qTerm  idx="-1"  idxOne="3"  idxTwo="18"  coef="-.3803"/><qTerm  idx="-1"  idxOne="4"  idxTwo="4"  coef="-.7699"/><qTerm  idx="-1"  idxOne="4"  idxTwo="6"  coef=".7363"/><qTerm  idx="-1"  idxOne="4"  idxTwo="7"  coef="-.2812"/><qTerm  idx="-1"  idxOne="4"  idxTwo="11"  coef=".8172"/><qTerm  idx="-1"  idxOne="4"  idxTwo="14"  coef="-.5754"/><qTerm  idx="-1"  idxOne="4"  idxTwo="19"  coef="-.2821"/><qTerm  idx="-1"  idxOne="5"  idxTwo="5"  coef="-.8113"/><qTerm  idx="-1"  idxOne="5"  idxTwo="7"  coef=".3038"/><qTerm  idx="-1"  idxOne="5"  idxTwo="8"  coef=".8093"/><qTerm  idx="-1"  idxOne="5"  idxTwo="9"  coef=".5277"/><qTerm  idx="-1"  idxOne="5"  idxTwo="11"  coef=".7849"/><qTerm  idx="-1"  idxOne="5"  idxTwo="16"  coef=".6706"/><qTerm  idx="-1"  idxOne="6"  idxTwo="6"  coef="1.52e-2"/><qTerm  idx="-1"  idxOne="6"  idxTwo="8"  coef="-9.e-3"/><qTerm  idx="-1"  idxOne="6"  idxTwo="9"  coef="8.2e-3"/><qTerm  idx="-1"  idxOne="6"  idxTwo="12"  coef=".5372"/><qTerm  idx="-1"  idxOne="6"  idxTwo="13"  coef="-.2333"/><qTerm  idx="-1"  idxOne="6"  idxTwo="14"  coef="-.8164"/><qTerm  idx="-1"  idxOne="6"  idxTwo="15"  coef=".8521"/><qTerm  idx="-1"  idxOne="6"  idxTwo="16"  coef=".4163"/><qTerm  idx="-1"  idxOne="6"  idxTwo="17"  coef=".6625"/><qTerm  idx="-1"  idxOne="7"  idxTwo="7"  coef=".6022"/><qTerm  idx="-1"  idxOne="7"  idxTwo="9"  coef=".1782"/><qTerm  idx="-1"  idxOne="7"  idxTwo="10"  coef=".63"/><qTerm  idx="-1"  idxOne="7"  idxTwo="12"  coef=".4385"/><qTerm  idx="-1"  idxOne="7"  idxTwo="13"  coef=".9963"/><qTerm  idx="-1"  idxOne="7"  idxTwo="14"  coef=".8737"/><qTerm  idx="-1"  idxOne="7"  idxTwo="15"  coef=".382"/><qTerm  idx="-1"  idxOne="7"  idxTwo="17"  coef=".4417"/><qTerm  idx="-1"  idxOne="7"  idxTwo="19"  coef=".2669"/><qTerm  idx="-1"  idxOne="8"  idxTwo="8"  coef=".7712"/><qTerm  idx="-1"  idxOne="8"  idxTwo="9"  coef=".5226"/><qTerm  idx="-1"  idxOne="8"  idxTwo="10"  coef=".3681"/><qTerm  idx="-1"  idxOne="8"  idxTwo="15"  coef=".7255"/><qTerm  idx="-1"  idxOne="8"  idxTwo="17"  coef="-.4059"/><qTerm  idx="-1"  idxOne="9"  idxTwo="9"  coef=".9658"/><qTerm  idx="-1"  idxOne="9"  idxTwo="10"  coef="-.8057"/><qTerm  idx="-1"  idxOne="9"  idxTwo="11"  coef=".2716"/><qTerm  idx="-1"  idxOne="9"  idxTwo="12"  coef="-.8667"/><qTerm  idx="-1"  idxOne="9"  idxTwo="16"  coef="-.6541"/><qTerm  idx="-1"  idxOne="10"  idxTwo="10"  coef="-7.23e-2"/><qTerm  idx="-1"  idxOne="10"  idxTwo="11"  coef="-.1218"/><qTerm  idx="-1"  idxOne="10"  idxTwo="12"  coef=".6082"/><qTerm  idx="-1"  idxOne="10"  idxTwo="16"  coef="-.1423"/><qTerm  idx="-1"  idxOne="10"  idxTwo="18"  coef=".5249"/><qTerm  idx="-1"  idxOne="10"  idxTwo="19"  coef=".4167"/><qTerm  idx="-1"  idxOne="11"  idxTwo="11"  coef="-.507"/><qTerm  idx="-1"  idxOne="11"  idxTwo="14"  coef=".8024"/><qTerm  idx="-1"  idxOne="11"  idxTwo="16"  coef="-.8732"/><qTerm  idx="-1"  idxOne="11"  idxTwo="17"  coef="-.9641"/><qTerm  idx="-1"  idxOne="11"  idxTwo="18"  coef=".8948"/><qTerm  idx="-1"  idxOne="11"  idxTwo="19"  coef="-2.28e-2"/><qTerm  idx="-1"  idxOne="12"  idxTwo="12"  coef="-.2308"/><qTerm  idx="-1"  idxOne="12"  idxTwo="14"  coef="-.8365"/><qTerm  idx="-1"  idxOne="12"  idxTwo="15"  coef="-4.07e-2"/><qTerm  idx="-1"  idxOne="12"  idxTwo="16"  coef="-.6009"/><qTerm  idx="-1"  idxOne="12"  idxTwo="19"  coef="-.2916"/><qTerm  idx="-1"  idxOne="13"  idxTwo="13"  coef="-.1374"/><qTerm  idx="-1"  idxOne="13"  idxTwo="15"  coef=".8125"/><qTerm  idx="-1"  idxOne="13"  idxTwo="17"  coef=".8725"/><qTerm  idx="-1"  idxOne="14"  idxTwo="14"  coef=".4909"/><qTerm  idx="-1"  idxOne="14"  idxTwo="15"  coef=".9356"/><qTerm  idx="-1"  idxOne="15"  idxTwo="15"  coef=".7571"/><qTerm  idx="-1"  idxOne="15"  idxTwo="16"  coef="-.4834"/><qTerm  idx="-1"  idxOne="15"  idxTwo="18"  coef=".5875"/><qTerm  idx="-1"  idxOne="15"  idxTwo="19"  coef="-.8418"/><qTerm  idx="-1"  idxOne="16"  idxTwo="17"  coef="-.9637"/><qTerm  idx="-1"  idxOne="16"  idxTwo="19"  coef="-.3318"/><qTerm  idx="-1"  idxOne="17"  idxTwo="17"  coef="-.3304"/><qTerm  idx="-1"  idxOne="17"  idxTwo="18"  coef="8.6e-3"/><qTerm  idx="-1"  idxOne="18"  idxTwo="18"  coef="-.2382"/><qTerm  idx="-1"  idxOne="19"  idxTwo="19"  coef=".7865"/></quadraticCoefficients></instanceData></osil>
